35
1 62868 178
2 92675 5850
3 44329 16736
4 9552 88742
5 71194 94412
6 55635 27166
7 87554 71384
8 55664 76907
9 10653 8821
10 93253 50795
11 50313 36886
12 42358 98460
13 28440 82603
14 41001 55231
15 89187 92724
16 28609 84517
17 99810 48094
18 91879 32881
19 64845 60357
20 35789 95328
21 72784 50246
22 34655 21470
23 74122 76770
24 1582 40308
25 47141 79082
26 49976 98116
27 28834 47664
28 86825 78476
29 14218 85860
30 71553 88714
31 74150 90624
32 63571 32440
33 79289 76105
34 24605 1545
35 16311 82800